************************************************************************
file with basedata            : mm63_.bas
initial value random generator: 894678482
************************************************************************
projects                      :  1
jobs (incl. supersource/sink ):  12
horizon                       :  74
RESOURCES
  - renewable                 :  2   R
  - nonrenewable              :  2   N
  - doubly constrained        :  0   D
************************************************************************
PROJECT INFORMATION:
pronr.  #jobs rel.date duedate tardcost  MPM-Time
    1     10      0       17        6       17
************************************************************************
PRECEDENCE RELATIONS:
jobnr.    #modes  #successors   successors
   1        1          3           2   3   4
   2        3          1           5
   3        3          2           7   8
   4        3          2           9  11
   5        3          1           6
   6        3          3           8   9  10
   7        3          2           9  10
   8        3          1          11
   9        3          1          12
  10        3          1          12
  11        3          1          12
  12        1          0        
************************************************************************
REQUESTS/DURATIONS:
jobnr. mode duration  R 1  R 2  N 1  N 2
------------------------------------------------------------------------
  1      1     0       0    0    0    0
  2      1     3       8    4    9    9
         2     3       5    3    9   10
         3     4       3    2    9    7
  3      1     3       3    6    8    6
         2     4       3    6    6    5
         3     5       1    5    6    5
  4      1     2      10    9    7    5
         2     6      10    9    5    4
         3     9       9    7    2    1
  5      1     6      10    3    4    5
         2     8       9    3    2    5
         3     9       8    1    2    5
  6      1     2       9    6   10    4
         2     8       8    4    9    4
         3     9       8    4    7    3
  7      1     2       9    7    4    7
         2     6       8    5    3    6
         3     7       8    4    2    4
  8      1     1       9    7    3    9
         2     2       8    6    3    9
         3    10       6    5    2    8
  9      1     2       5    6    6    7
         2     4       4    5    6    6
         3     6       4    5    6    5
 10      1     2       5    9    1    4
         2     4       5    9    1    3
         3     6       5    9    1    2
 11      1     5       8   10    7    8
         2     5       8   10    6    9
         3     9       8   10    5    7
 12      1     0       0    0    0    0
************************************************************************
RESOURCEAVAILABILITIES:
  R 1  R 2  N 1  N 2
   21   25   54   60
************************************************************************
MAXIMAL LAGS:
from  to  type  delay
    1   12   ES      0
    1    2   ES      0
    2   12   ES      0
    1    3   ES      0
    3   12   ES      0
    1    4   ES      0
    4   12   ES      0
    1    5   ES      0
    5   12   ES      0
    1    6   ES      0
    6   12   ES      0
    1    7   ES      0
    7   12   ES      0
    1    8   ES      0
    8   12   ES      0
    1    9   ES      0
    9   12   ES      0
    1   10   ES      0
   10   12   ES      0
    1   11   ES      0
   11   12   ES      0
    1   12   ES      0
    2    5   SS      1
    2    5   SE      0
    2    5   ES      9
    2    5   EE     -9
    3    7   SS      2
    3    7   SE      3
    3    7   ES     10
    3    7   EE    -11
    3    8   SS      0
    3    8   SE      3
    3    8   ES     -5
    3    8   EE      0
    4    9   SS      4
    4    9   SE     12
    4    9   ES     -8
    4    9   EE    -12
    4   11   SS     -1
    4   11   SE     12
    4   11   ES    -12
    4   11   EE      0
    5    6   SS      5
    5    6   SE     -8
    5    6   ES    -10
    5    6   EE      9
    6    8   SS     -7
    6    8   SE     -7
    6    8   ES     -5
    6    8   EE      8
    6    9   SS     -1
    6    9   SE     -2
    6    9   ES      9
    6    9   EE     -7
    6   10   SS    -10
    6   10   SE      0
    6   10   ES      9
    6   10   EE      9
    7    9   SS     -1
    7    9   SE    -12
    7    9   ES     12
    7    9   EE     -2
    7   10   SS      5
    7   10   SE      2
    7   10   ES     -9
    7   10   EE      9
    8   11   SS     -4
    8   11   SE      0
    8   11   ES      6
    8   11   EE     -8
************************************************************************
